p cnf 430 1488
-191 179 0
-191 -128 0
-191 -30 0
-191 23 0
-191 -163 0
191 -179 128 30 -23 163 0
-192 -52 0
-192 10 0
-192 6 0
-192 -117 0
-192 -14 0
192 52 -10 -6 117 14 0
-193 170 0
-193 132 0
-193 69 0
-193 39 0
-193 -43 0
193 -170 -132 -69 -39 43 0
-194 121 0
-194 179 0
-194 -58 0
-194 -64 0
-194 -59 0
194 -121 -179 58 64 59 0
-195 184 0
-195 -158 0
-195 131 0
-195 -115 0
-195 -26 0
195 -184 158 -131 115 26 0
191 192 193 194 195 0
-196 157 0
-196 -109 0
-196 -127 0
-196 126 0
-196 -142 0
196 -157 109 127 -126 142 0
-197 143 0
-197 87 0
-197 -85 0
-197 153 0
-197 106 0
197 -143 -87 85 -153 -106 0
-198 99 0
-198 -105 0
-198 -1 0
-198 -10 0
-198 -49 0
198 -99 105 1 10 49 0
-199 46 0
-199 -13 0
-199 126 0
-199 -73 0
-199 -74 0
199 -46 13 -126 73 74 0
-200 -70 0
-200 -160 0
-200 -86 0
-200 -19 0
-200 165 0
200 70 160 86 19 -165 0
196 197 198 199 200 0
-201 -89 0
-201 129 0
-201 -185 0
-201 -132 0
-201 134 0
201 89 -129 185 132 -134 0
-202 6 0
-202 93 0
-202 67 0
-202 -135 0
-202 -19 0
202 -6 -93 -67 135 19 0
-203 117 0
-203 124 0
-203 -168 0
-203 -10 0
-203 147 0
203 -117 -124 168 10 -147 0
-204 138 0
-204 175 0
-204 -142 0
-204 111 0
-204 -36 0
204 -138 -175 142 -111 36 0
-205 -41 0
-205 -28 0
-205 -167 0
-205 -181 0
-205 187 0
205 41 28 167 181 -187 0
201 202 203 204 205 0
-206 -182 0
-206 174 0
-206 -147 0
-206 189 0
-206 51 0
206 182 -174 147 -189 -51 0
-207 81 0
-207 102 0
-207 39 0
-207 58 0
-207 150 0
207 -81 -102 -39 -58 -150 0
-208 69 0
-208 119 0
-208 -96 0
-208 155 0
-208 94 0
208 -69 -119 96 -155 -94 0
-209 138 0
-209 -43 0
-209 -186 0
-209 85 0
-209 -77 0
209 -138 43 186 -85 77 0
-210 54 0
-210 -158 0
-210 -137 0
-210 81 0
-210 4 0
210 -54 158 137 -81 -4 0
206 207 208 209 210 0
-211 156 0
-211 13 0
-211 -8 0
-211 77 0
-211 -103 0
211 -156 -13 8 -77 103 0
-212 148 0
-212 52 0
-212 -153 0
-212 -185 0
-212 57 0
212 -148 -52 153 185 -57 0
-213 -128 0
-213 120 0
-213 49 0
-213 92 0
-213 53 0
213 128 -120 -49 -92 -53 0
-214 -102 0
-214 -8 0
-214 96 0
-214 48 0
-214 132 0
214 102 8 -96 -48 -132 0
-215 -188 0
-215 72 0
-215 132 0
-215 11 0
-215 -114 0
215 188 -72 -132 -11 114 0
211 212 213 214 215 0
-216 137 0
-216 -181 0
-216 -98 0
-216 23 0
-216 113 0
216 -137 181 98 -23 -113 0
-217 -10 0
-217 -21 0
-217 49 0
-217 -75 0
-217 112 0
217 10 21 -49 75 -112 0
-218 27 0
-218 -173 0
-218 -53 0
-218 -164 0
-218 -169 0
218 -27 173 53 164 169 0
-219 -2 0
-219 150 0
-219 -88 0
-219 -167 0
-219 -18 0
219 2 -150 88 167 18 0
-220 184 0
-220 144 0
-220 -160 0
-220 -123 0
-220 -136 0
220 -184 -144 160 123 136 0
216 217 218 219 220 0
-221 -127 0
-221 -73 0
-221 133 0
-221 11 0
-221 -42 0
221 127 73 -133 -11 42 0
-222 -70 0
-222 -162 0
-222 -123 0
-222 -161 0
-222 148 0
222 70 162 123 161 -148 0
-223 32 0
-223 -181 0
-223 -175 0
-223 -127 0
-223 -66 0
223 -32 181 175 127 66 0
-224 -124 0
-224 167 0
-224 181 0
-224 -135 0
-224 -160 0
224 124 -167 -181 135 160 0
-225 -182 0
-225 -67 0
-225 34 0
-225 -30 0
-225 -99 0
225 182 67 -34 30 99 0
221 222 223 224 225 0
-226 119 0
-226 140 0
-226 -5 0
-226 23 0
-226 -126 0
226 -119 -140 5 -23 126 0
-227 -47 0
-227 -153 0
-227 166 0
-227 -177 0
-227 -151 0
227 47 153 -166 177 151 0
-228 106 0
-228 158 0
-228 153 0
-228 -87 0
-228 -129 0
228 -106 -158 -153 87 129 0
-229 -179 0
-229 108 0
-229 53 0
-229 142 0
-229 181 0
229 179 -108 -53 -142 -181 0
-230 177 0
-230 -136 0
-230 100 0
-230 -28 0
-230 94 0
230 -177 136 -100 28 -94 0
226 227 228 229 230 0
-231 38 0
-231 95 0
-231 -157 0
-231 -151 0
-231 -156 0
231 -38 -95 157 151 156 0
-232 169 0
-232 163 0
-232 -36 0
-232 -164 0
-232 15 0
232 -169 -163 36 164 -15 0
-233 -22 0
-233 -119 0
-233 118 0
-233 55 0
-233 -171 0
233 22 119 -118 -55 171 0
-234 82 0
-234 -41 0
-234 -79 0
-234 83 0
-234 101 0
234 -82 41 79 -83 -101 0
-235 -99 0
-235 71 0
-235 3 0
-235 -35 0
-235 -112 0
235 99 -71 -3 35 112 0
231 232 233 234 235 0
-236 -131 0
-236 -102 0
-236 148 0
-236 190 0
-236 -17 0
236 131 102 -148 -190 17 0
-237 -103 0
-237 -162 0
-237 -185 0
-237 -111 0
-237 44 0
237 103 162 185 111 -44 0
-238 176 0
-238 108 0
-238 8 0
-238 140 0
-238 -158 0
238 -176 -108 -8 -140 158 0
-239 -8 0
-239 -14 0
-239 170 0
-239 -113 0
-239 123 0
239 8 14 -170 113 -123 0
-240 99 0
-240 49 0
-240 -97 0
-240 79 0
-240 -32 0
240 -99 -49 97 -79 32 0
236 237 238 239 240 0
-241 186 0
-241 3 0
-241 160 0
-241 -46 0
-241 170 0
241 -186 -3 -160 46 -170 0
-242 -88 0
-242 -84 0
-242 -184 0
-242 108 0
-242 98 0
242 88 84 184 -108 -98 0
-243 -9 0
-243 -93 0
-243 36 0
-243 69 0
-243 109 0
243 9 93 -36 -69 -109 0
-244 -15 0
-244 -64 0
-244 -152 0
-244 -177 0
-244 79 0
244 15 64 152 177 -79 0
-245 2 0
-245 -124 0
-245 -185 0
-245 142 0
-245 -114 0
245 -2 124 185 -142 114 0
241 242 243 244 245 0
-246 145 0
-246 -36 0
-246 -119 0
-246 144 0
-246 158 0
246 -145 36 119 -144 -158 0
-247 33 0
-247 44 0
-247 146 0
-247 27 0
-247 -130 0
247 -33 -44 -146 -27 130 0
-248 -5 0
-248 -109 0
-248 -100 0
-248 21 0
-248 141 0
248 5 109 100 -21 -141 0
-249 -129 0
-249 161 0
-249 183 0
-249 166 0
-249 -164 0
249 129 -161 -183 -166 164 0
-250 -114 0
-250 80 0
-250 -128 0
-250 -125 0
-250 62 0
250 114 -80 128 125 -62 0
246 247 248 249 250 0
-251 126 0
-251 -151 0
-251 36 0
-251 73 0
-251 -166 0
251 -126 151 -36 -73 166 0
-252 2 0
-252 -70 0
-252 162 0
-252 115 0
-252 145 0
252 -2 70 -162 -115 -145 0
-253 7 0
-253 140 0
-253 183 0
-253 -93 0
-253 143 0
253 -7 -140 -183 93 -143 0
-254 184 0
-254 -56 0
-254 148 0
-254 -152 0
-254 -7 0
254 -184 56 -148 152 7 0
-255 -73 0
-255 -84 0
-255 70 0
-255 66 0
-255 -186 0
255 73 84 -70 -66 186 0
251 252 253 254 255 0
-256 189 0
-256 -126 0
-256 177 0
-256 -143 0
-256 78 0
256 -189 126 -177 143 -78 0
-257 108 0
-257 22 0
-257 161 0
-257 155 0
-257 168 0
257 -108 -22 -161 -155 -168 0
-258 -77 0
-258 150 0
-258 61 0
-258 -17 0
-258 -110 0
258 77 -150 -61 17 110 0
-259 126 0
-259 136 0
-259 -31 0
-259 97 0
-259 -147 0
259 -126 -136 31 -97 147 0
-260 188 0
-260 -3 0
-260 -56 0
-260 -67 0
-260 142 0
260 -188 3 56 67 -142 0
256 257 258 259 260 0
-261 -132 0
-261 87 0
-261 4 0
-261 183 0
-261 139 0
261 132 -87 -4 -183 -139 0
-262 109 0
-262 92 0
-262 -168 0
-262 -40 0
-262 189 0
262 -109 -92 168 40 -189 0
-263 -89 0
-263 -175 0
-263 -65 0
-263 -154 0
-263 3 0
263 89 175 65 154 -3 0
-264 -127 0
-264 48 0
-264 -163 0
-264 -155 0
-264 -1 0
264 127 -48 163 155 1 0
-265 18 0
-265 141 0
-265 94 0
-265 -188 0
-265 -155 0
265 -18 -141 -94 188 155 0
261 262 263 264 265 0
-266 -13 0
-266 7 0
-266 -141 0
-266 -136 0
-266 -164 0
266 13 -7 141 136 164 0
-267 78 0
-267 142 0
-267 128 0
-267 27 0
-267 130 0
267 -78 -142 -128 -27 -130 0
-268 188 0
-268 -78 0
-268 132 0
-268 109 0
-268 41 0
268 -188 78 -132 -109 -41 0
-269 111 0
-269 -35 0
-269 -188 0
-269 -150 0
-269 -21 0
269 -111 35 188 150 21 0
-270 40 0
-270 -54 0
-270 -185 0
-270 -63 0
-270 -114 0
270 -40 54 185 63 114 0
266 267 268 269 270 0
-271 136 0
-271 180 0
-271 -35 0
-271 -22 0
-271 -157 0
271 -136 -180 35 22 157 0
-272 184 0
-272 43 0
-272 -164 0
-272 108 0
-272 -127 0
272 -184 -43 164 -108 127 0
-273 -20 0
-273 83 0
-273 177 0
-273 75 0
-273 -103 0
273 20 -83 -177 -75 103 0
-274 -107 0
-274 -29 0
-274 -147 0
-274 140 0
-274 34 0
274 107 29 147 -140 -34 0
-275 158 0
-275 11 0
-275 -40 0
-275 125 0
-275 46 0
275 -158 -11 40 -125 -46 0
271 272 273 274 275 0
-276 -12 0
-276 -164 0
-276 132 0
-276 -24 0
-276 144 0
276 12 164 -132 24 -144 0
-277 -40 0
-277 9 0
-277 -111 0
-277 -42 0
-277 -109 0
277 40 -9 111 42 109 0
-278 -117 0
-278 116 0
-278 -20 0
-278 49 0
-278 -118 0
278 117 -116 20 -49 118 0
-279 -117 0
-279 -6 0
-279 -179 0
-279 -4 0
-279 167 0
279 117 6 179 4 -167 0
-280 101 0
-280 59 0
-280 -17 0
-280 123 0
-280 -36 0
280 -101 -59 17 -123 36 0
276 277 278 279 280 0
-281 -120 0
-281 -177 0
-281 -115 0
-281 -8 0
-281 -44 0
281 120 177 115 8 44 0
-282 -144 0
-282 -15 0
-282 62 0
-282 -177 0
-282 -18 0
282 144 15 -62 177 18 0
-283 -155 0
-283 185 0
-283 -66 0
-283 53 0
-283 -39 0
283 155 -185 66 -53 39 0
-284 -173 0
-284 33 0
-284 -156 0
-284 -15 0
-284 32 0
284 173 -33 156 15 -32 0
-285 -107 0
-285 112 0
-285 -61 0
-285 -5 0
-285 30 0
285 107 -112 61 5 -30 0
281 282 283 284 285 0
-286 -31 0
-286 -59 0
-286 117 0
-286 53 0
-286 -135 0
286 31 59 -117 -53 135 0
-287 20 0
-287 45 0
-287 -168 0
-287 145 0
-287 179 0
287 -20 -45 168 -145 -179 0
-288 -126 0
-288 -132 0
-288 145 0
-288 -56 0
-288 171 0
288 126 132 -145 56 -171 0
-289 104 0
-289 41 0
-289 -17 0
-289 135 0
-289 -5 0
289 -104 -41 17 -135 5 0
-290 146 0
-290 -1 0
-290 87 0
-290 -13 0
-290 -45 0
290 -146 1 -87 13 45 0
286 287 288 289 290 0
-291 132 0
-291 96 0
-291 -125 0
-291 57 0
-291 2 0
291 -132 -96 125 -57 -2 0
-292 -29 0
-292 126 0
-292 61 0
-292 89 0
-292 -3 0
292 29 -126 -61 -89 3 0
-293 -97 0
-293 53 0
-293 -141 0
-293 185 0
-293 57 0
293 97 -53 141 -185 -57 0
-294 94 0
-294 -66 0
-294 101 0
-294 174 0
-294 47 0
294 -94 66 -101 -174 -47 0
-295 62 0
-295 51 0
-295 -76 0
-295 113 0
-295 -149 0
295 -62 -51 76 -113 149 0
291 292 293 294 295 0
-296 36 0
-296 -65 0
-296 -116 0
-296 77 0
-296 49 0
296 -36 65 116 -77 -49 0
-297 47 0
-297 72 0
-297 62 0
-297 5 0
-297 170 0
297 -47 -72 -62 -5 -170 0
-298 2 0
-298 -129 0
-298 -44 0
-298 -63 0
-298 91 0
298 -2 129 44 63 -91 0
-299 57 0
-299 160 0
-299 -12 0
-299 -20 0
-299 139 0
299 -57 -160 12 20 -139 0
-300 29 0
-300 -69 0
-300 142 0
-300 -71 0
-300 -151 0
300 -29 69 -142 71 151 0
296 297 298 299 300 0
-301 189 0
-301 -32 0
-301 103 0
-301 57 0
-301 43 0
301 -189 32 -103 -57 -43 0
-302 18 0
-302 19 0
-302 40 0
-302 -156 0
-302 184 0
302 -18 -19 -40 156 -184 0
-303 -154 0
-303 63 0
-303 60 0
-303 11 0
-303 -150 0
303 154 -63 -60 -11 150 0
-304 110 0
-304 14 0
-304 80 0
-304 97 0
-304 -169 0
304 -110 -14 -80 -97 169 0
-305 18 0
-305 -189 0
-305 35 0
-305 50 0
-305 31 0
305 -18 189 -35 -50 -31 0
301 302 303 304 305 0
-306 182 0
-306 -97 0
-306 -8 0
-306 -185 0
-306 -41 0
306 -182 97 8 185 41 0
-307 -82 0
-307 8 0
-307 78 0
-307 119 0
-307 -48 0
307 82 -8 -78 -119 48 0
-308 84 0
-308 73 0
-308 -119 0
-308 -30 0
-308 128 0
308 -84 -73 119 30 -128 0
-309 -71 0
-309 10 0
-309 30 0
-309 -61 0
-309 27 0
309 71 -10 -30 61 -27 0
-310 -123 0
-310 68 0
-310 -21 0
-310 51 0
-310 115 0
310 123 -68 21 -51 -115 0
306 307 308 309 310 0
-311 -100 0
-311 183 0
-311 -19 0
-311 -73 0
-311 161 0
311 100 -183 19 73 -161 0
-312 -167 0
-312 -162 0
-312 -181 0
-312 -67 0
-312 26 0
312 167 162 181 67 -26 0
-313 -122 0
-313 -89 0
-313 -36 0
-313 42 0
-313 -60 0
313 122 89 36 -42 60 0
-314 -149 0
-314 -185 0
-314 -92 0
-314 -81 0
-314 -59 0
314 149 185 92 81 59 0
-315 66 0
-315 36 0
-315 137 0
-315 112 0
-315 -12 0
315 -66 -36 -137 -112 12 0
311 312 313 314 315 0
-316 149 0
-316 187 0
-316 -90 0
-316 114 0
-316 -10 0
316 -149 -187 90 -114 10 0
-317 -43 0
-317 -171 0
-317 89 0
-317 76 0
-317 -133 0
317 43 171 -89 -76 133 0
-318 188 0
-318 12 0
-318 -37 0
-318 -122 0
-318 -59 0
318 -188 -12 37 122 59 0
-319 -115 0
-319 187 0
-319 94 0
-319 51 0
-319 -60 0
319 115 -187 -94 -51 60 0
-320 -7 0
-320 151 0
-320 52 0
-320 103 0
-320 32 0
320 7 -151 -52 -103 -32 0
316 317 318 319 320 0
-321 106 0
-321 6 0
-321 -135 0
-321 -115 0
-321 -122 0
321 -106 -6 135 115 122 0
-322 -60 0
-322 52 0
-322 -34 0
-322 -77 0
-322 -103 0
322 60 -52 34 77 103 0
-323 -49 0
-323 144 0
-323 -22 0
-323 -154 0
-323 85 0
323 49 -144 22 154 -85 0
-324 -100 0
-324 72 0
-324 26 0
-324 -175 0
-324 30 0
324 100 -72 -26 175 -30 0
-325 186 0
-325 -108 0
-325 113 0
-325 -152 0
-325 -70 0
325 -186 108 -113 152 70 0
321 322 323 324 325 0
-326 -159 0
-326 -54 0
-326 -9 0
-326 158 0
-326 -131 0
326 159 54 9 -158 131 0
-327 81 0
-327 -156 0
-327 -85 0
-327 36 0
-327 -187 0
327 -81 156 85 -36 187 0
-328 141 0
-328 -9 0
-328 46 0
-328 -162 0
-328 59 0
328 -141 9 -46 162 -59 0
-329 -8 0
-329 -115 0
-329 -176 0
-329 71 0
-329 -7 0
329 8 115 176 -71 7 0
-330 -185 0
-330 -73 0
-330 188 0
-330 171 0
-330 -143 0
330 185 73 -188 -171 143 0
326 327 328 329 330 0
-331 103 0
-331 136 0
-331 21 0
-331 177 0
-331 55 0
331 -103 -136 -21 -177 -55 0
-332 -33 0
-332 -90 0
-332 115 0
-332 -108 0
-332 -80 0
332 33 90 -115 108 80 0
-333 122 0
-333 -182 0
-333 -30 0
-333 -62 0
-333 49 0
333 -122 182 30 62 -49 0
-334 138 0
-334 -181 0
-334 -105 0
-334 -61 0
-334 142 0
334 -138 181 105 61 -142 0
-335 -14 0
-335 189 0
-335 -33 0
-335 -146 0
-335 -108 0
335 14 -189 33 146 108 0
331 332 333 334 335 0
-336 67 0
-336 18 0
-336 25 0
-336 173 0
-336 108 0
336 -67 -18 -25 -173 -108 0
-337 56 0
-337 -65 0
-337 -26 0
-337 -114 0
-337 -179 0
337 -56 65 26 114 179 0
-338 9 0
-338 -144 0
-338 1 0
-338 93 0
-338 -87 0
338 -9 144 -1 -93 87 0
-339 -41 0
-339 -94 0
-339 56 0
-339 -91 0
-339 20 0
339 41 94 -56 91 -20 0
-340 100 0
-340 123 0
-340 173 0
-340 -2 0
-340 150 0
340 -100 -123 -173 2 -150 0
336 337 338 339 340 0
-341 145 0
-341 137 0
-341 -90 0
-341 -169 0
-341 -115 0
341 -145 -137 90 169 115 0
-342 148 0
-342 15 0
-342 73 0
-342 32 0
-342 86 0
342 -148 -15 -73 -32 -86 0
-343 -22 0
-343 -162 0
-343 -65 0
-343 -51 0
-343 -155 0
343 22 162 65 51 155 0
-344 56 0
-344 -161 0
-344 45 0
-344 26 0
-344 -166 0
344 -56 161 -45 -26 166 0
-345 28 0
-345 154 0
-345 -140 0
-345 9 0
-345 -35 0
345 -28 -154 140 -9 35 0
341 342 343 344 345 0
-346 -137 0
-346 51 0
-346 -23 0
-346 149 0
-346 -165 0
346 137 -51 23 -149 165 0
-347 -103 0
-347 -94 0
-347 -54 0
-347 122 0
-347 1 0
347 103 94 54 -122 -1 0
-348 -48 0
-348 181 0
-348 134 0
-348 -160 0
-348 6 0
348 48 -181 -134 160 -6 0
-349 114 0
-349 121 0
-349 -107 0
-349 95 0
-349 -168 0
349 -114 -121 107 -95 168 0
-350 -102 0
-350 134 0
-350 -174 0
-350 54 0
-350 62 0
350 102 -134 174 -54 -62 0
346 347 348 349 350 0
-351 141 0
-351 -104 0
-351 -17 0
-351 34 0
-351 -123 0
351 -141 104 17 -34 123 0
-352 153 0
-352 26 0
-352 -85 0
-352 -189 0
-352 -116 0
352 -153 -26 85 189 116 0
-353 -93 0
-353 7 0
-353 166 0
-353 74 0
-353 -115 0
353 93 -7 -166 -74 115 0
-354 86 0
-354 -109 0
-354 -9 0
-354 167 0
-354 121 0
354 -86 109 9 -167 -121 0
-355 -139 0
-355 46 0
-355 29 0
-355 -129 0
-355 -60 0
355 139 -46 -29 129 60 0
351 352 353 354 355 0
-356 -84 0
-356 -138 0
-356 178 0
-356 4 0
-356 183 0
356 84 138 -178 -4 -183 0
-357 -128 0
-357 110 0
-357 176 0
-357 59 0
-357 93 0
357 128 -110 -176 -59 -93 0
-358 -172 0
-358 -142 0
-358 -114 0
-358 2 0
-358 -157 0
358 172 142 114 -2 157 0
-359 -162 0
-359 88 0
-359 -6 0
-359 -116 0
-359 44 0
359 162 -88 6 116 -44 0
-360 -98 0
-360 -19 0
-360 134 0
-360 -22 0
-360 -189 0
360 98 19 -134 22 189 0
356 357 358 359 360 0
-361 123 0
-361 151 0
-361 85 0
-361 -117 0
-361 91 0
361 -123 -151 -85 117 -91 0
-362 73 0
-362 115 0
-362 79 0
-362 18 0
-362 -23 0
362 -73 -115 -79 -18 23 0
-363 -152 0
-363 -150 0
-363 7 0
-363 -147 0
-363 -119 0
363 152 150 -7 147 119 0
-364 183 0
-364 20 0
-364 63 0
-364 -52 0
-364 -40 0
364 -183 -20 -63 52 40 0
-365 17 0
-365 41 0
-365 109 0
-365 -187 0
-365 39 0
365 -17 -41 -109 187 -39 0
361 362 363 364 365 0
-366 16 0
-366 163 0
-366 120 0
-366 -137 0
-366 -50 0
366 -16 -163 -120 137 50 0
-367 -85 0
-367 45 0
-367 -55 0
-367 104 0
-367 -105 0
367 85 -45 55 -104 105 0
-368 187 0
-368 -179 0
-368 75 0
-368 13 0
-368 -63 0
368 -187 179 -75 -13 63 0
-369 23 0
-369 25 0
-369 -16 0
-369 -56 0
-369 -72 0
369 -23 -25 16 56 72 0
-370 5 0
-370 186 0
-370 -80 0
-370 3 0
-370 -100 0
370 -5 -186 80 -3 100 0
366 367 368 369 370 0
-371 138 0
-371 -60 0
-371 -18 0
-371 -38 0
-371 -27 0
371 -138 60 18 38 27 0
-372 183 0
-372 -115 0
-372 24 0
-372 -169 0
-372 147 0
372 -183 115 -24 169 -147 0
-373 -100 0
-373 -87 0
-373 63 0
-373 -33 0
-373 -187 0
373 100 87 -63 33 187 0
-374 -59 0
-374 -164 0
-374 57 0
-374 144 0
-374 -44 0
374 59 164 -57 -144 44 0
-375 -19 0
-375 -100 0
-375 -170 0
-375 -83 0
-375 38 0
375 19 100 170 83 -38 0
371 372 373 374 375 0
-376 50 0
-376 61 0
-376 -106 0
-376 27 0
-376 98 0
376 -50 -61 106 -27 -98 0
-377 -77 0
-377 -63 0
-377 21 0
-377 -47 0
-377 -156 0
377 77 63 -21 47 156 0
-378 161 0
-378 -40 0
-378 182 0
-378 -144 0
-378 44 0
378 -161 40 -182 144 -44 0
-379 27 0
-379 -122 0
-379 -174 0
-379 -114 0
-379 -148 0
379 -27 122 174 114 148 0
-380 95 0
-380 159 0
-380 -47 0
-380 -23 0
-380 -96 0
380 -95 -159 47 23 96 0
376 377 378 379 380 0
-381 -57 0
-381 -117 0
-381 -144 0
-381 -115 0
-381 140 0
381 57 117 144 115 -140 0
-382 16 0
-382 -170 0
-382 -120 0
-382 -60 0
-382 54 0
382 -16 170 120 60 -54 0
-383 -36 0
-383 184 0
-383 138 0
-383 179 0
-383 -151 0
383 36 -184 -138 -179 151 0
-384 176 0
-384 123 0
-384 -91 0
-384 107 0
-384 -28 0
384 -176 -123 91 -107 28 0
-385 141 0
-385 -181 0
-385 182 0
-385 65 0
-385 22 0
385 -141 181 -182 -65 -22 0
381 382 383 384 385 0
-386 2 0
-386 -181 0
-386 146 0
-386 -12 0
-386 143 0
386 -2 181 -146 12 -143 0
-387 -177 0
-387 1 0
-387 175 0
-387 -127 0
-387 -121 0
387 177 -1 -175 127 121 0
-388 69 0
-388 172 0
-388 -85 0
-388 -10 0
-388 25 0
388 -69 -172 85 10 -25 0
-389 95 0
-389 21 0
-389 -97 0
-389 182 0
-389 67 0
389 -95 -21 97 -182 -67 0
-390 -81 0
-390 -158 0
-390 143 0
-390 -164 0
-390 -127 0
390 81 158 -143 164 127 0
386 387 388 389 390 0
-391 -166 0
-391 -94 0
-391 155 0
-391 26 0
-391 180 0
391 166 94 -155 -26 -180 0
-392 161 0
-392 171 0
-392 -42 0
-392 -151 0
-392 36 0
392 -161 -171 42 151 -36 0
-393 13 0
-393 -65 0
-393 -156 0
-393 -155 0
-393 51 0
393 -13 65 156 155 -51 0
-394 -77 0
-394 185 0
-394 44 0
-394 3 0
-394 164 0
394 77 -185 -44 -3 -164 0
-395 -76 0
-395 -44 0
-395 -187 0
-395 22 0
-395 64 0
395 76 44 187 -22 -64 0
391 392 393 394 395 0
-396 183 0
-396 -96 0
-396 20 0
-396 -93 0
-396 -178 0
396 -183 96 -20 93 178 0
-397 40 0
-397 72 0
-397 9 0
-397 -37 0
-397 28 0
397 -40 -72 -9 37 -28 0
-398 -44 0
-398 -97 0
-398 -136 0
-398 -69 0
-398 166 0
398 44 97 136 69 -166 0
-399 -120 0
-399 101 0
-399 -28 0
-399 67 0
-399 96 0
399 120 -101 28 -67 -96 0
-400 159 0
-400 131 0
-400 128 0
-400 112 0
-400 178 0
400 -159 -131 -128 -112 -178 0
396 397 398 399 400 0
-401 -160 0
-401 139 0
-401 92 0
-401 -188 0
-401 -38 0
401 160 -139 -92 188 38 0
-402 -182 0
-402 -72 0
-402 132 0
-402 56 0
-402 -32 0
402 182 72 -132 -56 32 0
-403 -127 0
-403 -21 0
-403 -167 0
-403 157 0
-403 -43 0
403 127 21 167 -157 43 0
-404 188 0
-404 41 0
-404 185 0
-404 190 0
-404 84 0
404 -188 -41 -185 -190 -84 0
-405 32 0
-405 48 0
-405 38 0
-405 -52 0
-405 109 0
405 -32 -48 -38 52 -109 0
401 402 403 404 405 0
-406 88 0
-406 83 0
-406 -2 0
-406 20 0
-406 122 0
406 -88 -83 2 -20 -122 0
-407 -23 0
-407 78 0
-407 -46 0
-407 -106 0
-407 -181 0
407 23 -78 46 106 181 0
-408 169 0
-408 -1 0
-408 -37 0
-408 85 0
-408 -145 0
408 -169 1 37 -85 145 0
-409 -61 0
-409 -126 0
-409 -14 0
-409 -65 0
-409 185 0
409 61 126 14 65 -185 0
-410 -122 0
-410 -58 0
-410 175 0
-410 139 0
-410 -43 0
410 122 58 -175 -139 43 0
406 407 408 409 410 0
-411 151 0
-411 -181 0
-411 119 0
-411 -134 0
-411 78 0
411 -151 181 -119 134 -78 0
-412 -16 0
-412 -98 0
-412 -188 0
-412 -36 0
-412 180 0
412 16 98 188 36 -180 0
-413 101 0
-413 -45 0
-413 -141 0
-413 87 0
-413 76 0
413 -101 45 141 -87 -76 0
-414 48 0
-414 109 0
-414 -188 0
-414 166 0
-414 97 0
414 -48 -109 188 -166 -97 0
-415 -137 0
-415 120 0
-415 -42 0
-415 128 0
-415 -185 0
415 137 -120 42 -128 185 0
411 412 413 414 415 0
-416 113 0
-416 172 0
-416 47 0
-416 -62 0
-416 -41 0
416 -113 -172 -47 62 41 0
-417 147 0
-417 36 0
-417 -149 0
-417 -168 0
-417 76 0
417 -147 -36 149 168 -76 0
-418 181 0
-418 -20 0
-418 -186 0
-418 -54 0
-418 -66 0
418 -181 20 186 54 66 0
-419 -2 0
-419 -94 0
-419 118 0
-419 -9 0
-419 -87 0
419 2 94 -118 9 87 0
-420 -54 0
-420 -170 0
-420 -162 0
-420 -12 0
-420 154 0
420 54 170 162 12 -154 0
416 417 418 419 420 0
-421 -83 0
-421 -55 0
-421 79 0
-421 -184 0
-421 -21 0
421 83 55 -79 184 21 0
-422 -81 0
-422 -118 0
-422 -16 0
-422 122 0
-422 78 0
422 81 118 16 -122 -78 0
-423 135 0
-423 -149 0
-423 54 0
-423 71 0
-423 88 0
423 -135 149 -54 -71 -88 0
-424 -93 0
-424 -16 0
-424 189 0
-424 70 0
-424 -46 0
424 93 16 -189 -70 46 0
-425 11 0
-425 81 0
-425 -115 0
-425 48 0
-425 -19 0
425 -11 -81 115 -48 19 0
421 422 423 424 425 0
-426 -162 0
-426 -97 0
-426 -77 0
-426 -176 0
-426 -114 0
426 162 97 77 176 114 0
-427 152 0
-427 -171 0
-427 12 0
-427 -86 0
-427 179 0
427 -152 171 -12 86 -179 0
-428 -83 0
-428 165 0
-428 -84 0
-428 4 0
-428 -93 0
428 83 -165 84 -4 93 0
-429 -152 0
-429 -117 0
-429 58 0
-429 -131 0
-429 13 0
429 152 117 -58 131 -13 0
-430 -106 0
-430 -26 0
-430 23 0
-430 -163 0
-430 -22 0
430 106 26 -23 163 22 0
426 427 428 429 430 0
